exemple.lp
Maximize a + b + c + d

Subject To

 a + b + c     <= 6
 a         + d <= 3
     b         <= 2
         c + d <= 6

END
