exemple.sol
Problem:    
Rows:       4
Columns:    4
Non-zeros:  8
Status:     OPTIMAL
Objective:  obj = 8.5 (MAXimum)

   No.   Row name   St   Activity     Lower bound   Upper bound    Marginal
------ ------------ -- ------------- ------------- ------------- -------------
     1 r.11         NU             6                           6           0.5 
     2 r.12         NU             3                           3           0.5 
     3 r.13         NU             2                           2           0.5 
     4 r.14         NU             6                           6           0.5 

   No. Column name  St   Activity     Lower bound   Upper bound    Marginal
------ ------------ -- ------------- ------------- ------------- -------------
     1 a            B            0.5             0               
     2 b            B              2             0               
     3 c            B            3.5             0               
     4 d            B            2.5             0               

Karush-Kuhn-Tucker optimality conditions:

KKT.PE: max.abs.err = 0.00e+00 on row 0
        max.rel.err = 0.00e+00 on row 0
        High quality

KKT.PB: max.abs.err = 0.00e+00 on row 0
        max.rel.err = 0.00e+00 on row 0
        High quality

KKT.DE: max.abs.err = 0.00e+00 on column 0
        max.rel.err = 0.00e+00 on column 0
        High quality

KKT.DB: max.abs.err = 0.00e+00 on row 0
        max.rel.err = 0.00e+00 on row 0
        High quality

End of output
